1039 654 774 1125 267 555 461 940 363 863
903 995 430 119 355 0 242 1077 711 1171
144 230 940 995 850 469 397 753 83 0
827 457 304 626 527 761 686 0 1003 940
363 1077 524 0 98 686 591 831 268 186
1125 0 604 852 186 267 331 684 524 790
623 144 874 527 430 940 1039 94 777 1100
554 304 253 171 0 375 98 469 616 711
0 518 684 253 774 850 171 334 908 1003
227 375 1098 69 935 1039 761 554 457 610
